65875
12 9 3 -1 500 500 500 
13 2 10 14 15 1 16 20 -1 500 250 50 250 50 100 250 50 
2
1
20 -1 40 
20 -1 40 
20 -1 40 
8 -1 40 
20 -1 40 
8 -1 40 
20 -1 40 
4 18 -1 25 15 
8 18 2 -1 20 10 10 
2 -1 40 
2 -1 40 
2 -1 40 
2 -1 40 
2 -1 40 
2 -1 40 
16 -1 40 
16 -1 40 
16 -1 40 
16 -1 40 
16 -1 40 
16 -1 40 
16 1 -1 10 30 
1 -1 40 
1 15 -1 30 10 
10 -1 40 
10 5 15 -1 10 25 5 
15 6 -1 35 5 
17 11 -1 25 15 
7 19 -1 25 15 
11 19 6 -1 10 10 20 
2
18 8 -1 25 15 
8 -1 40 
8 -1 40 
8 4 -1 5 25 
